120
150
52
53
48
60
57
53
55
50
46
49
40
42
55
45
53
46
52
55
54
51
55
50
57
43
45
55
49
48
55
47
40
49
53
48
45
59
60
48
55
52
50
59
59
41
52
43
46
51
57
42
60
46
55
44
43
55
55
55
55
47
48
41
58
43
55
42
49
52
53
43
56
40
43
59
54
48
56
60
49
51
40
57
53
42
41
49
54
60
56
40
51
51
41
52
48
43
47
49
47
54
50
60
55
52
52
43
57
55
41
54
58
40
49
46
57
60
47
41
43
60
